NAME : airline78.-285787950.tour
COMMENT : Length = -285787950
COMMENT : Found by LKH [Keld Helsgaun] Tue Jul 13 16:06:53 2021
TYPE : TOUR
DIMENSION : 29
TOUR_SECTION
1
8
3
13
18
19
17
6
2
7
20
5
21
12
14
15
16
27
22
25
24
23
28
26
29
4
11
9
10
-1
EOF
